minizinc/sudoku_problems2/sudoku_p53.dzn
%
% sudoku_p53.dzn
% See http://www.hakank.org/minizinc/sudoku_gcc.mzn
% 
% This problem is problem 53 from
% Gecode's sudoku.cpp
% http://www.gecode.org/gecode-doc-latest/sudoku_8cpp-source.html
% 
x = array2d(1..n, 1..n, [   
% http://janko.at/Raetsel/Sudoku/370.a.htm
% 53
  3,  _,  _,  _,  _,  1, 16,  _,  _,  5,  _,  7,  _, 10,  4,  _,
 15, 14,  7, 12,  _,  3,  _,  9,  _,  _,  _,  _,  _,  _,  _, 16,
  _,  8,  _,  _,  _,  _,  _,  5, 13,  9, 16,  _, 12,  _,  _,  3,
  5, 16,  _, 10,  6,  _,  _,  _,  _,  3,  8,  _, 15, 13,  7,  _,
  _,  _,  _,  5, 16,  _,  9,  4,  _,  8,  _,  2,  7, 12,  _,  _,
  _,  9,  8,  _, 14,  _,  5, 12,  _, 16,  _,  _,  _,  _,  _,  _,
  4,  _,  _,  _,  _,  7,  _,  2,  5,  _, 12, 11,  _,  6,  _, 10,
  2, 10,  _, 15,  _,  _,  _,  _,  _,  _,  _,  6,  _,  5, 16,  _,
  _, 15,  3,  _,  5,  _,  _,  _,  _,  _,  _,  _,  4,  _, 13, 11,
 12,  _, 11,  _,  9,  8,  _, 10, 15,  _,  7,  _,  _,  _,  _,  6,
  _,  _,  _,  _,  _,  _,  6,  _,  2, 13,  _, 12,  _,  9, 14,  _,
  _,  _,  6, 16,  4,  _, 11,  _,  8,  1,  _,  9, 10,  _,  _,  _,
  _, 13,  5,  3,  _, 12,  8,  _,  _,  _,  _, 14,  6,  _,  9,  7,
 10,  _,  _,  2,  _, 13,  4,  6,  7,  _,  _,  _,  _,  _,  5,  _,
  8,  _,  _,  _,  _,  _,  _,  _,  4,  _,  9,  _,  3,  2, 11,  1,
  _,  4, 15,  _,  2,  _,  3,  _,  _,  6,  1,  _,  _,  _,  _, 12
]);

n = 16;


